
Gurobi 11.0.3 (linux64, gurobi_cl) logging started Tue Sep 17 09:41:03 2024

Set parameter Username
Set parameter LogFile to value "gurobi.log"
Using license file /home/halil/gurobi.lic
Academic license - for non-commercial use only - expires 2025-09-16

Gurobi 11.0.3 (linux64, gurobi_cl) logging started Tue Sep 17 09:41:16 2024

Set parameter Username
Set parameter LogFile to value "gurobi.log"
Using license file /home/halil/gurobi.lic
Academic license - for non-commercial use only - expires 2025-09-16

Gurobi Optimizer version 11.0.3 build v11.0.3rc0 (linux64 - "Ubuntu 22.04.5 LTS")
Copyright (c) 2024, Gurobi Optimization, LLC

Read LP format model from file problem.lp
Reading time = 0.22 seconds
obj: 48649 rows, 320 columns, 444910 nonzeros

CPU model: 11th Gen Intel(R) Core(TM) i7-1165G7 @ 2.80GHz, instruction set [SSE2|AVX|AVX2|AVX512]
Thread count: 4 physical cores, 8 logical processors, using up to 8 threads

Optimize a model with 48649 rows, 320 columns and 444910 nonzeros
Model fingerprint: 0xa206d45a
Variable types: 0 continuous, 320 integer (0 binary)
Coefficient statistics:
  Matrix range     [1e+00, 5e+00]
  Objective range  [1e+00, 1e+00]
  Bounds range     [1e+00, 1e+00]
  RHS range        [1e+00, 4e+00]
Found heuristic solution: objective 100.0000000
Presolve removed 560 rows and 40 columns
Presolve time: 0.65s
Presolved: 48089 rows, 280 columns, 444230 nonzeros
Variable types: 0 continuous, 280 integer (280 binary)
Root relaxation presolved: 280 rows, 48369 columns, 444510 nonzeros


Use crossover to convert LP symmetric solution to basic solution...

Root relaxation: objective 2.031902e+00, 68 iterations, 0.25 seconds (0.42 work units)

    Nodes    |    Current Node    |     Objective Bounds      |     Work
 Expl Unexpl |  Obj  Depth IntInf | Incumbent    BestBd   Gap | It/Node Time

     0     0    2.03190    0  244  100.00000    2.03190  98.0%     -    1s
H    0     0                      16.0000000    2.03190  87.3%     -    1s
     0     0    7.71429    0  235   16.00000    7.71429  51.8%     -    2s
     0     0    9.18820    0  231   16.00000    9.18820  42.6%     -    4s
     0     0    9.27506    0  206   16.00000    9.27506  42.0%     -    4s
     0     0    9.73172    0  223   16.00000    9.73172  39.2%     -    6s
     0     0    9.81778    0  215   16.00000    9.81778  38.6%     -    6s
     0     0    9.82064    0  215   16.00000    9.82064  38.6%     -    6s
     0     0   10.49542    0  236   16.00000   10.49542  34.4%     -    8s
     0     0   10.55087    0  240   16.00000   10.55087  34.1%     -    8s
     0     0   10.56459    0  238   16.00000   10.56459  34.0%     -    8s
     0     0   10.56616    0  249   16.00000   10.56616  34.0%     -    8s
     0     0   11.27480    0  223   16.00000   11.27480  29.5%     -   10s
     0     0   11.52708    0  189   16.00000   11.52708  28.0%     -   10s
     0     0   11.62479    0  210   16.00000   11.62479  27.3%     -   10s
     0     0   11.63589    0  205   16.00000   11.63589  27.3%     -   11s
     0     0   11.63800    0  214   16.00000   11.63800  27.3%     -   11s
     0     0   11.63979    0  232   16.00000   11.63979  27.3%     -   11s
     0     0   11.64045    0  234   16.00000   11.64045  27.2%     -   11s
     0     0   11.99006    0  206   16.00000   11.99006  25.1%     -   12s
     0     0   12.05503    0  196   16.00000   12.05503  24.7%     -   13s
     0     0   12.09112    0  219   16.00000   12.09112  24.4%     -   13s
     0     0   12.12140    0  229   16.00000   12.12140  24.2%     -   13s
     0     0   12.12365    0  225   16.00000   12.12365  24.2%     -   13s
     0     0   12.12440    0  232   16.00000   12.12440  24.2%     -   13s
     0     0   12.26407    0  219   16.00000   12.26407  23.3%     -   15s
     0     0   12.29270    0  207   16.00000   12.29270  23.2%     -   15s
     0     0   12.30827    0  194   16.00000   12.30827  23.1%     -   15s
     0     0   12.30995    0  220   16.00000   12.30995  23.1%     -   15s
     0     0   12.31016    0  207   16.00000   12.31016  23.1%     -   15s
     0     0   12.52697    0  190   16.00000   12.52697  21.7%     -   16s
     0     0   12.60550    0  181   16.00000   12.60550  21.2%     -   17s
     0     0   12.60807    0  226   16.00000   12.60807  21.2%     -   17s
     0     0   12.60856    0  218   16.00000   12.60856  21.2%     -   17s
     0     0   12.93297    0  185   16.00000   12.93297  19.2%     -   18s
     0     0   12.94264    0  186   16.00000   12.94264  19.1%     -   18s
     0     0   12.94278    0  187   16.00000   12.94278  19.1%     -   18s
     0     0   13.03427    0  196   16.00000   13.03427  18.5%     -   19s
     0     0   13.04254    0  224   16.00000   13.04254  18.5%     -   19s
     0     0   13.06742    0  249   16.00000   13.06742  18.3%     -   19s
     0     0   13.08904    0  189   16.00000   13.08904  18.2%     -   20s
     0     0   13.08987    0  203   16.00000   13.08987  18.2%     -   20s
     0     0   13.11273    0  241   16.00000   13.11273  18.0%     -   21s
     0     0   13.12812    0  221   16.00000   13.12812  17.9%     -   21s
     0     0   13.12964    0  213   16.00000   13.12964  17.9%     -   21s
     0     0   13.13180    0  242   16.00000   13.13180  17.9%     -   21s
     0     0   13.13273    0  227   16.00000   13.13273  17.9%     -   21s
     0     0   13.19755    0  234   16.00000   13.19755  17.5%     -   22s
     0     0   13.21049    0  245   16.00000   13.21049  17.4%     -   23s
     0     0   13.21677    0  227   16.00000   13.21677  17.4%     -   23s
     0     0   13.22521    0  237   16.00000   13.22521  17.3%     -   23s
     0     0   13.22521    0  237   16.00000   13.22521  17.3%     -   23s
     0     0   13.36190    0  221   16.00000   13.36190  16.5%     -   24s
     0     0   13.37986    0  236   16.00000   13.37986  16.4%     -   24s
     0     0   13.38507    0  240   16.00000   13.38507  16.3%     -   24s
     0     0   13.39130    0  240   16.00000   13.39130  16.3%     -   25s
     0     0   13.45879    0  227   16.00000   13.45879  15.9%     -   25s
     0     0   13.46644    0  221   16.00000   13.46644  15.8%     -   26s
     0     0   13.47310    0  220   16.00000   13.47310  15.8%     -   26s
     0     0   13.47318    0  225   16.00000   13.47318  15.8%     -   26s
     0     0   13.47637    0  222   16.00000   13.47637  15.8%     -   27s
     0     0   13.48253    0  202   16.00000   13.48253  15.7%     -   27s
     0     0   13.51416    0  205   16.00000   13.51416  15.5%     -   28s
     0     0   13.51416    0  205   16.00000   13.51416  15.5%     -   28s
     0     0   13.53526    0  221   16.00000   13.53526  15.4%     -   29s
     0     0   13.58769    0  211   16.00000   13.58769  15.1%     -   30s
     0     0   13.59164    0  216   16.00000   13.59164  15.1%     -   30s
     0     0   13.60877    0  221   16.00000   13.60877  14.9%     -   31s
     0     0   13.62553    0  226   16.00000   13.62553  14.8%     -   31s
     0     0   13.62720    0  224   16.00000   13.62720  14.8%     -   31s
     0     0   13.62797    0  223   16.00000   13.62797  14.8%     -   31s
     0     0   13.86873    0  222   16.00000   13.86873  13.3%     -   32s
     0     0   13.93526    0  238   16.00000   13.93526  12.9%     -   33s
     0     0   13.99511    0  223   16.00000   13.99511  12.5%     -   33s
     0     0   13.99750    0  234   16.00000   13.99750  12.5%     -   33s
     0     0   13.99992    0  234   16.00000   13.99992  12.5%     -   33s
     0     0   14.00196    0  217   16.00000   14.00196  12.5%     -   33s
     0     0   14.00196    0  217   16.00000   14.00196  12.5%     -   33s
     0     0   14.00866    0  221   16.00000   14.00866  12.4%     -   34s
     0     0   14.00868    0  213   16.00000   14.00868  12.4%     -   34s
     0     0   14.00868    0  213   16.00000   14.00868  12.4%     -   36s
     0     2   14.00868    0  200   16.00000   14.00868  12.4%     -   37s

Cutting planes:
  MIR: 33
  Zero half: 8

Explored 3 nodes (10089 simplex iterations) in 37.69 seconds (54.64 work units)
Thread count was 8 (of 8 available processors)

Solution count 2: 16 100 

Optimal solution found (tolerance 1.00e-04)
Best objective 1.600000000000e+01, best bound 1.600000000000e+01, gap 0.0000%

Gurobi 11.0.3 (linux64, gurobi_cl) logging started Wed Sep 18 08:51:32 2024

Set parameter Username
Set parameter LogFile to value "gurobi.log"
Using license file /home/halil/gurobi.lic
Academic license - for non-commercial use only - expires 2025-09-16

Gurobi Optimizer version 11.0.3 build v11.0.3rc0 (linux64 - "Ubuntu 22.04.5 LTS")
Copyright (c) 2024, Gurobi Optimization, LLC

Read LP format model from file problem.lp
Reading time = 0.20 seconds
obj: 48649 rows, 320 columns, 444910 nonzeros

CPU model: 11th Gen Intel(R) Core(TM) i7-1165G7 @ 2.80GHz, instruction set [SSE2|AVX|AVX2|AVX512]
Thread count: 4 physical cores, 8 logical processors, using up to 8 threads

Optimize a model with 48649 rows, 320 columns and 444910 nonzeros
Model fingerprint: 0xa206d45a
Variable types: 0 continuous, 320 integer (0 binary)
Coefficient statistics:
  Matrix range     [1e+00, 5e+00]
  Objective range  [1e+00, 1e+00]
  Bounds range     [1e+00, 1e+00]
  RHS range        [1e+00, 4e+00]
Found heuristic solution: objective 100.0000000
Presolve removed 560 rows and 40 columns
Presolve time: 0.65s
Presolved: 48089 rows, 280 columns, 444230 nonzeros
Variable types: 0 continuous, 280 integer (280 binary)
Root relaxation presolved: 280 rows, 48369 columns, 444510 nonzeros


Use crossover to convert LP symmetric solution to basic solution...

Root relaxation: objective 2.031902e+00, 68 iterations, 0.25 seconds (0.42 work units)

    Nodes    |    Current Node    |     Objective Bounds      |     Work
 Expl Unexpl |  Obj  Depth IntInf | Incumbent    BestBd   Gap | It/Node Time

     0     0    2.03190    0  244  100.00000    2.03190  98.0%     -    1s
H    0     0                      16.0000000    2.03190  87.3%     -    1s
     0     0    7.71429    0  235   16.00000    7.71429  51.8%     -    3s
     0     0    9.18820    0  231   16.00000    9.18820  42.6%     -    4s
     0     0    9.27506    0  206   16.00000    9.27506  42.0%     -    4s
     0     0    9.73172    0  223   16.00000    9.73172  39.2%     -    5s
     0     0    9.81778    0  215   16.00000    9.81778  38.6%     -    6s
     0     0    9.82064    0  215   16.00000    9.82064  38.6%     -    6s
     0     0   10.49542    0  236   16.00000   10.49542  34.4%     -    7s
     0     0   10.55087    0  240   16.00000   10.55087  34.1%     -    8s
     0     0   10.56459    0  238   16.00000   10.56459  34.0%     -    8s
     0     0   10.56616    0  249   16.00000   10.56616  34.0%     -    8s
     0     0   11.27480    0  223   16.00000   11.27480  29.5%     -    9s
     0     0   11.52708    0  189   16.00000   11.52708  28.0%     -    9s
     0     0   11.62479    0  210   16.00000   11.62479  27.3%     -   10s
     0     0   11.63589    0  205   16.00000   11.63589  27.3%     -   10s
     0     0   11.63800    0  214   16.00000   11.63800  27.3%     -   10s
     0     0   11.63979    0  232   16.00000   11.63979  27.3%     -   10s
     0     0   11.64045    0  234   16.00000   11.64045  27.2%     -   10s
     0     0   11.99006    0  206   16.00000   11.99006  25.1%     -   11s
     0     0   12.05503    0  196   16.00000   12.05503  24.7%     -   12s
     0     0   12.09112    0  219   16.00000   12.09112  24.4%     -   12s
     0     0   12.12140    0  229   16.00000   12.12140  24.2%     -   12s
     0     0   12.12365    0  225   16.00000   12.12365  24.2%     -   12s
     0     0   12.12440    0  232   16.00000   12.12440  24.2%     -   12s
     0     0   12.26407    0  219   16.00000   12.26407  23.3%     -   14s
     0     0   12.29270    0  207   16.00000   12.29270  23.2%     -   14s
     0     0   12.30827    0  194   16.00000   12.30827  23.1%     -   14s
     0     0   12.30995    0  220   16.00000   12.30995  23.1%     -   14s
     0     0   12.31016    0  207   16.00000   12.31016  23.1%     -   14s
     0     0   12.52697    0  190   16.00000   12.52697  21.7%     -   15s
     0     0   12.60550    0  181   16.00000   12.60550  21.2%     -   16s
     0     0   12.60807    0  226   16.00000   12.60807  21.2%     -   16s
     0     0   12.60856    0  218   16.00000   12.60856  21.2%     -   16s
     0     0   12.93297    0  185   16.00000   12.93297  19.2%     -   17s
     0     0   12.94264    0  186   16.00000   12.94264  19.1%     -   17s
     0     0   12.94278    0  187   16.00000   12.94278  19.1%     -   17s
     0     0   13.03427    0  196   16.00000   13.03427  18.5%     -   18s
     0     0   13.04254    0  224   16.00000   13.04254  18.5%     -   18s
     0     0   13.06742    0  249   16.00000   13.06742  18.3%     -   18s
     0     0   13.08904    0  189   16.00000   13.08904  18.2%     -   19s
     0     0   13.08987    0  203   16.00000   13.08987  18.2%     -   19s
     0     0   13.11273    0  241   16.00000   13.11273  18.0%     -   20s
     0     0   13.12812    0  221   16.00000   13.12812  17.9%     -   20s
     0     0   13.12964    0  213   16.00000   13.12964  17.9%     -   20s
     0     0   13.13180    0  242   16.00000   13.13180  17.9%     -   20s
     0     0   13.13273    0  227   16.00000   13.13273  17.9%     -   20s
     0     0   13.19755    0  234   16.00000   13.19755  17.5%     -   21s
     0     0   13.21049    0  245   16.00000   13.21049  17.4%     -   22s
     0     0   13.21677    0  227   16.00000   13.21677  17.4%     -   22s
     0     0   13.22521    0  237   16.00000   13.22521  17.3%     -   22s
     0     0   13.22521    0  237   16.00000   13.22521  17.3%     -   22s
     0     0   13.36190    0  221   16.00000   13.36190  16.5%     -   23s
     0     0   13.37986    0  236   16.00000   13.37986  16.4%     -   23s
     0     0   13.38507    0  240   16.00000   13.38507  16.3%     -   23s
     0     0   13.39130    0  240   16.00000   13.39130  16.3%     -   23s
     0     0   13.45879    0  227   16.00000   13.45879  15.9%     -   24s
     0     0   13.46644    0  221   16.00000   13.46644  15.8%     -   25s
     0     0   13.47310    0  220   16.00000   13.47310  15.8%     -   25s
     0     0   13.47318    0  225   16.00000   13.47318  15.8%     -   25s
     0     0   13.47637    0  222   16.00000   13.47637  15.8%     -   26s
     0     0   13.48253    0  202   16.00000   13.48253  15.7%     -   26s
     0     0   13.51416    0  205   16.00000   13.51416  15.5%     -   27s
     0     0   13.51416    0  205   16.00000   13.51416  15.5%     -   27s
     0     0   13.53526    0  221   16.00000   13.53526  15.4%     -   28s
     0     0   13.58769    0  211   16.00000   13.58769  15.1%     -   28s
     0     0   13.59164    0  216   16.00000   13.59164  15.1%     -   28s
     0     0   13.60877    0  221   16.00000   13.60877  14.9%     -   30s
     0     0   13.62553    0  226   16.00000   13.62553  14.8%     -   30s
     0     0   13.62720    0  224   16.00000   13.62720  14.8%     -   30s
     0     0   13.62797    0  223   16.00000   13.62797  14.8%     -   30s
     0     0   13.86873    0  222   16.00000   13.86873  13.3%     -   31s
     0     0   13.93526    0  238   16.00000   13.93526  12.9%     -   31s
     0     0   13.99511    0  223   16.00000   13.99511  12.5%     -   32s
     0     0   13.99750    0  234   16.00000   13.99750  12.5%     -   32s
     0     0   13.99992    0  234   16.00000   13.99992  12.5%     -   32s
     0     0   14.00196    0  217   16.00000   14.00196  12.5%     -   32s
     0     0   14.00196    0  217   16.00000   14.00196  12.5%     -   32s
     0     0   14.00866    0  221   16.00000   14.00866  12.4%     -   33s
     0     0   14.00868    0  213   16.00000   14.00868  12.4%     -   33s
     0     0   14.00868    0  213   16.00000   14.00868  12.4%     -   34s
     0     2   14.00868    0  200   16.00000   14.00868  12.4%     -   35s

Cutting planes:
  MIR: 33
  Zero half: 8

Explored 3 nodes (10089 simplex iterations) in 36.40 seconds (54.64 work units)
Thread count was 8 (of 8 available processors)

Solution count 2: 16 100 

Optimal solution found (tolerance 1.00e-04)
Best objective 1.600000000000e+01, best bound 1.600000000000e+01, gap 0.0000%
